NAME : pr124Preorder.6019.tour
COMMENT : Length = 6019
COMMENT : Found by LKH [Keld Helsgaun] Sat May  2 00:05:47 2020
TYPE : TOUR
DIMENSION : 124
TOUR_SECTION
1
8
7
27
28
29
35
36
59
61
60
58
57
56
55
37
38
26
24
25
22
23
39
40
21
20
41
42
43
44
54
45
19
18
17
16
9
10
11
13
12
14
15
50
51
49
48
47
46
52
53
88
89
104
107
105
106
108
109
110
111
112
113
114
103
102
90
87
86
85
91
101
115
116
117
118
119
120
121
122
123
124
100
99
98
97
96
95
94
93
92
80
79
78
77
75
73
71
69
64
63
68
70
72
74
76
81
82
84
83
67
65
66
62
33
34
30
31
32
5
6
4
3
2
-1
EOF
